p cnf 129 451
-1 2 -3 0
1 -2 -3 0
-1 -2 3 0
1 2 3 0
5 6 -7 0
-5 -6 -7 0
5 -6 7 0
-5 6 7 0
8 -4 0
8 7 0
4 -7 -8 0
-9 -3 0
-9 8 0
3 -8 9 0
11 10 0
11 10 0
-10 -11 0
12 13 -14 0
-12 -13 -14 0
12 -13 14 0
-12 13 14 0
-15 11 0
-15 14 0
-11 -14 15 0
16 -5 0
16 1 0
5 -1 -16 0
-17 13 0
-17 -16 0
-13 16 17 0
18 -13 0
18 17 0
13 -17 -18 0
-19 -4 0
-19 18 0
4 -18 19 0
-20 -15 0
-20 19 0
15 -19 20 0
9 20 -21 0
-9 -20 -21 0
9 -20 21 0
-9 20 21 0
-12 -23 -24 0
12 23 -24 0
-12 23 24 0
12 -23 24 0
-25 -10 0
-25 -24 0
10 24 25 0
26 -22 0
26 -25 0
22 25 -26 0
27 -21 0
27 -26 0
21 26 -27 0
-6 -28 -29 0
6 28 -29 0
-6 28 29 0
6 -28 29 0
-30 -29 0
-30 17 0
29 -17 30 0
31 -30 0
31 -30 0
30 -31 0
-33 2 0
-33 32 0
-2 -32 33 0
34 -4 0
34 -32 0
4 32 -34 0
-34 -28 -35 0
34 28 -35 0
-34 28 35 0
34 -28 35 0
-36 35 0
-36 11 0
-35 -11 36 0
37 -33 0
37 -36 0
33 36 -37 0
-38 37 0
-38 29 0
-37 -29 38 0
-39 -16 0
-39 35 0
16 -35 39 0
-40 39 0
-40 14 0
-39 -14 40 0
-38 -40 -41 0
38 40 -41 0
-38 40 41 0
38 -40 41 0
-42 31 0
-42 41 0
-31 -41 42 0
43 -27 0
43 -42 0
27 42 -43 0
45 -5 0
45 -30 0
5 30 -45 0
-24 45 -46 0
24 -45 -46 0
-24 -45 46 0
24 45 46 0
-47 44 0
-47 46 0
-44 -46 47 0
-48 15 0
-48 -3 0
-15 3 48 0
47 -48 -49 0
-47 48 -49 0
47 48 49 0
-47 -48 49 0
-50 2 0
-50 -13 0
-2 13 50 0
50 28 -51 0
-50 -28 -51 0
50 -28 51 0
-50 28 51 0
52 3 0
52 35 0
-3 -35 -52 0
-51 52 -53 0
51 -52 -53 0
-51 -52 53 0
51 52 53 0
-54 -49 0
-54 53 0
49 -53 54 0
23 -31 -55 0
-23 31 -55 0
23 31 55 0
-23 -31 55 0
-44 55 -56 0
44 -55 -56 0
-44 -55 56 0
44 55 56 0
57 -54 0
57 -56 0
54 56 -57 0
-59 -58 0
-59 -45 0
58 45 59 0
60 -23 0
60 59 0
23 -59 -60 0
1 -33 -61 0
-1 33 -61 0
1 33 61 0
-1 -33 61 0
-62 61 0
-62 7 0
-61 -7 62 0
63 61 0
63 62 0
-61 -62 -63 0
60 63 -64 0
-60 -63 -64 0
60 -63 64 0
-60 63 64 0
-65 50 0
-65 23 0
-50 -23 65 0
-66 65 0
-66 -15 0
-65 15 66 0
67 7 0
67 -16 0
-7 16 -67 0
66 67 -68 0
-66 -67 -68 0
66 -67 68 0
-66 67 68 0
-69 64 0
-69 68 0
-64 -68 69 0
7 -33 -70 0
-7 33 -70 0
7 33 70 0
-7 -33 70 0
71 -40 0
71 70 0
40 -70 -71 0
-72 25 0
-72 -50 0
-25 50 72 0
73 71 0
73 -72 0
-71 72 -73 0
-74 -33 0
-74 -59 0
33 59 74 0
-73 -74 -75 0
73 74 -75 0
-73 74 75 0
73 -74 75 0
-76 -69 0
-76 75 0
69 -75 76 0
-77 -57 0
-77 76 0
57 -76 77 0
-78 -43 0
-78 77 0
43 -77 78 0
-13 4 -79 0
13 -4 -79 0
-13 -4 79 0
13 4 79 0
-80 -61 0
-80 -25 0
61 25 80 0
-39 -80 -81 0
39 80 -81 0
-39 80 81 0
39 -80 81 0
82 24 0
82 -12 0
-24 12 -82 0
-83 -81 0
-83 -82 0
81 82 83 0
84 -79 0
84 -83 0
79 83 -84 0
-85 -1 0
-85 1 0
-86 -85 0
-86 -25 0
85 25 86 0
-87 -18 0
-87 86 0
18 -86 87 0
15 -24 -88 0
-15 24 -88 0
15 24 88 0
-15 -24 88 0
89 39 0
89 -85 0
-39 85 -89 0
90 39 0
90 31 0
-39 -31 -90 0
-91 -31 0
-91 -34 0
31 34 91 0
92 90 0
92 91 0
-90 -91 -92 0
89 -92 -93 0
-89 92 -93 0
89 92 93 0
-89 -92 93 0
94 88 0
94 -93 0
-88 93 -94 0
95 -4 0
95 5 0
4 -5 -95 0
-96 45 0
-96 -10 0
-45 10 96 0
95 96 -97 0
-95 -96 -97 0
95 -96 97 0
-95 96 97 0
-98 -65 0
-98 -50 0
65 50 98 0
-97 -98 -99 0
97 98 -99 0
-97 98 99 0
97 -98 99 0
100 -94 0
100 -99 0
94 99 -100 0
-101 87 0
-101 -100 0
-87 100 101 0
-84 101 -102 0
84 -101 -102 0
-84 -101 102 0
84 101 102 0
103 4 0
103 44 0
-4 -44 -103 0
-104 103 0
-104 -31 0
-103 31 104 0
105 -25 0
105 -1 0
25 1 -105 0
-106 -104 0
-106 105 0
104 -105 106 0
-107 70 0
-107 -65 0
-70 65 107 0
108 25 0
108 -28 0
-25 28 -108 0
109 108 0
109 16 0
-108 -16 -109 0
110 6 0
110 -23 0
-6 23 -110 0
-109 -110 -111 0
109 110 -111 0
-109 110 111 0
109 -110 111 0
-112 -107 0
-112 -111 0
107 111 112 0
-113 -58 0
-113 -85 0
58 85 113 0
114 -113 0
114 13 0
113 -13 -114 0
115 -114 0
115 -93 0
114 93 -115 0
116 39 0
116 -13 0
-39 13 -116 0
-58 -116 -117 0
58 116 -117 0
-58 116 117 0
58 -116 117 0
118 1 0
118 117 0
-1 -117 -118 0
-33 118 -119 0
33 -118 -119 0
-33 -118 119 0
33 118 119 0
120 -115 0
120 119 0
115 -119 -120 0
-121 -32 0
-121 62 0
32 -62 121 0
122 121 0
122 -6 0
-121 6 -122 0
-123 122 0
-123 10 0
-122 -10 123 0
124 13 0
124 -123 0
-13 123 -124 0
-125 120 0
-125 124 0
-120 -124 125 0
-112 125 -126 0
112 -125 -126 0
-112 -125 126 0
112 125 126 0
-106 -126 -127 0
106 126 -127 0
-106 126 127 0
106 -126 127 0
-128 102 0
-128 -127 0
-102 127 128 0
129 -78 0
129 128 0
78 -128 -129 0
73 9 0
-69 30 0
112 71 -103 -45 59 0
-3 113 0
-61 -81 126 25 -72 0
125 78 -87 0
98 -59 -87 1 -86 0
-95 -4 123 102 52 82 0
-34 -114 74 22 54 -124 0
-31 -52 -94 -103 38 0
40 -39 118 31 127 0
-20 -37 51 -54 33 0
-56 112 44 32 -129 20 0
-86 -77 -105 0
95 79 45 84 -6 0
124 -53 0
54 28 23 -82 65 -109 0
109 -58 120 0
-104 89 -63 33 74 24 0
81 -97 127 0
-76 10 66 120 20 -41 0
36 -63 97 0
109 60 -100 -16 0
-29 -88 0
89 4 22 0
-111 -128 0
119 -47 81 0
-43 -127 46 101 125 0
76 -89 106 -41 26 0
-80 78 -110 98 72 0
-29 -112 -28 -100 14 0
15 -25 0
19 -95 108 0
-51 -116 118 53 -120 -78 0
-61 -62 0
41 -83 -87 0
-74 -41 0
22 96 0
-116 32 1 61 68 121 0
64 71 81 0
-6 -62 0
129 120 -66 0
-88 -109 101 -92 0
-98 -66 -86 113 0
90 35 -48 -10 0
-128 52 -4 15 -7 0
-31 93 0
36 -45 -44 -48 -61 0
-58 -81 0
16 48 -50 98 -59 0
-121 -62 -14 0
45 87 1 89 -115 0
-15 -81 91 -42 -62 92 0
33 111 122 112 0
112 94 -37 66 -7 0
105 -38 -129 -15 100 106 0
-104 -94 91 -95 0
-73 -116 0
74 107 -104 0
-82 112 -6 109 7 0
108 69 0
36 -23 0
66 -9 106 -56 -69 0
10 -116 -91 -37 -85 -24 0
65 75 0
-2 -1 -23 -41 -52 0
64 -115 0
29 -46 -72 -103 -2 -20 0
2 -128 82 122 -21 -69 0
-82 -2 23 -33 89 0
45 -58 38 30 0
-37 2 -104 3 -45 -112 0
-87 -129 61 -86 0
-87 -9 0
9 -97 15 0
129 0
